40
1 0 19
2 0 75
2 1 45
3 0 1
3 1 7
3 2 1
4 0 5
4 1 50
4 2 78
4 3 75
5 0 33
5 1 32
5 2 66
5 3 8
5 4 63
6 0 23
6 1 17
6 2 67
6 3 45
6 4 15
6 5 44
7 0 78
7 1 55
7 2 55
7 3 71
7 4 19
7 5 26
7 6 74
8 0 17
8 1 12
8 2 66
8 3 79
8 4 79
8 5 77
8 6 70
8 7 65
9 0 28
9 1 65
9 2 20
9 3 59
9 4 5
9 5 10
9 6 61
9 7 68
9 8 22
10 0 3
10 1 80
10 2 8
10 3 50
10 4 14
10 5 9
10 6 54
10 7 19
10 8 25
10 9 67
11 0 1
11 1 58
11 2 43
11 3 34
11 4 55
11 5 8
11 6 80
11 7 4
11 8 64
11 9 28
11 10 34
12 0 2
12 1 65
12 2 3
12 3 79
12 4 74
12 5 62
12 6 5
12 7 9
12 8 20
12 9 40
12 10 59
12 11 26
13 0 31
13 1 15
13 2 34
13 3 29
13 4 3
13 5 31
13 6 55
13 7 2
13 8 18
13 9 26
13 10 54
13 11 35
13 12 44
14 0 19
14 1 75
14 2 68
14 3 43
14 4 70
14 5 18
14 6 10
14 7 80
14 8 44
14 9 65
14 10 29
14 11 62
14 12 29
14 13 27
15 0 38
15 1 39
15 2 28
15 3 24
15 4 60
15 5 72
15 6 77
15 7 54
15 8 35
15 9 17
15 10 60
15 11 25
15 12 9
15 13 23
15 14 33
16 0 1
16 1 23
16 2 49
16 3 51
16 4 43
16 5 39
16 6 53
16 7 15
16 8 67
16 9 74
16 10 61
16 11 14
16 12 27
16 13 16
16 14 59
16 15 61
17 0 7
17 1 76
17 2 69
17 3 30
17 4 4
17 5 12
17 6 2
17 7 25
17 8 63
17 9 53
17 10 78
17 11 39
17 12 37
17 13 20
17 14 16
17 15 30
17 16 69
18 0 62
18 1 56
18 2 49
18 3 56
18 4 73
18 5 56
18 6 70
18 7 59
18 8 7
18 9 20
18 10 67
18 11 12
18 12 54
18 13 75
18 14 22
18 15 23
18 16 64
18 17 35
19 0 68
19 1 74
19 2 66
19 3 48
19 4 2
19 5 32
19 6 76
19 7 4
19 8 3
19 9 29
19 10 13
19 11 59
19 12 5
19 13 80
19 14 30
19 15 2
19 16 71
19 17 80
19 18 65
20 0 65
20 1 59
20 2 51
20 3 60
20 4 16
20 5 8
20 6 47
20 7 16
20 8 44
20 9 55
20 10 43
20 11 20
20 12 65
20 13 70
20 14 51
20 15 76
20 16 65
20 17 17
20 18 23
20 19 20
21 0 35
21 1 74
21 2 77
21 3 6
21 4 19
21 5 41
21 6 69
21 7 53
21 8 66
21 9 57
21 10 61
21 11 78
21 12 73
21 13 43
21 14 28
21 15 25
21 16 11
21 17 26
21 18 57
21 19 71
21 20 60
22 0 49
22 1 4
22 2 70
22 3 5
22 4 52
22 5 47
22 6 1
22 7 1
22 8 53
22 9 22
22 10 79
22 11 29
22 12 16
22 13 70
22 14 5
22 15 35
22 16 25
22 17 31
22 18 65
22 19 19
22 20 12
22 21 75
23 0 52
23 1 44
23 2 39
23 3 54
23 4 65
23 5 15
23 6 7
23 7 15
23 8 74
23 9 49
23 10 76
23 11 40
23 12 2
23 13 51
23 14 78
23 15 62
23 16 12
23 17 56
23 18 26
23 19 11
23 20 34
23 21 11
23 22 66
24 0 24
24 1 44
24 2 35
24 3 80
24 4 76
24 5 74
24 6 21
24 7 45
24 8 3
24 9 78
24 10 70
24 11 47
24 12 28
24 13 30
24 14 5
24 15 47
24 16 15
24 17 78
24 18 79
24 19 22
24 20 75
24 21 16
24 22 22
24 23 49
25 0 54
25 1 48
25 2 31
25 3 53
25 4 40
25 5 12
25 6 7
25 7 7
25 8 70
25 9 46
25 10 47
25 11 42
25 12 22
25 13 41
25 14 49
25 15 78
25 16 80
25 17 33
25 18 38
25 19 8
25 20 71
25 21 46
25 22 75
25 23 6
25 24 27
26 0 52
26 1 33
26 2 18
26 3 55
26 4 39
26 5 73
26 6 57
26 7 14
26 8 9
26 9 39
26 10 4
26 11 62
26 12 28
26 13 36
26 14 3
26 15 53
26 16 29
26 17 29
26 18 48
26 19 23
26 20 68
26 21 51
26 22 41
26 23 10
26 24 8
26 25 28
27 0 72
27 1 43
27 2 71
27 3 27
27 4 17
27 5 44
27 6 66
27 7 6
27 8 75
27 9 24
27 10 75
27 11 44
27 12 18
27 13 38
27 14 27
27 15 23
27 16 17
27 17 2
27 18 29
27 19 22
27 20 65
27 21 76
27 22 46
27 23 26
27 24 10
27 25 8
27 26 30
28 0 21
28 1 63
28 2 78
28 3 24
28 4 62
28 5 72
28 6 13
28 7 5
28 8 7
28 9 41
28 10 1
28 11 8
28 12 50
28 13 36
28 14 34
28 15 1
28 16 17
28 17 21
28 18 79
28 19 20
28 20 62
28 21 51
28 22 71
28 23 78
28 24 29
28 25 12
28 26 22
28 27 66
29 0 1
29 1 49
29 2 70
29 3 12
29 4 66
29 5 23
29 6 24
29 7 62
29 8 16
29 9 40
29 10 15
29 11 44
29 12 14
29 13 59
29 14 5
29 15 15
29 16 14
29 17 7
29 18 55
29 19 76
29 20 68
29 21 46
29 22 18
29 23 41
29 24 50
29 25 75
29 26 41
29 27 70
29 28 11
30 0 55
30 1 18
30 2 4
30 3 63
30 4 46
30 5 56
30 6 16
30 7 5
30 8 67
30 9 70
30 10 18
30 11 17
30 12 73
30 13 34
30 14 72
30 15 54
30 16 24
30 17 3
30 18 26
30 19 10
30 20 70
30 21 52
30 22 16
30 23 14
30 24 70
30 25 60
30 26 77
30 27 2
30 28 24
30 29 34
31 0 5
31 1 44
31 2 37
31 3 33
31 4 71
31 5 68
31 6 72
31 7 46
31 8 80
31 9 77
31 10 75
31 11 41
31 12 54
31 13 30
31 14 49
31 15 6
31 16 11
31 17 52
31 18 54
31 19 24
31 20 55
31 21 12
31 22 77
31 23 55
31 24 65
31 25 54
31 26 26
31 27 5
31 28 74
31 29 52
31 30 69
32 0 33
32 1 19
32 2 1
32 3 21
32 4 30
32 5 11
32 6 4
32 7 27
32 8 20
32 9 61
32 10 55
32 11 19
32 12 69
32 13 71
32 14 14
32 15 61
32 16 44
32 17 18
32 18 8
32 19 66
32 20 1
32 21 62
32 22 2
32 23 2
32 24 72
32 25 66
32 26 33
32 27 72
32 28 38
32 29 53
32 30 41
32 31 11
33 0 42
33 1 17
33 2 24
33 3 2
33 4 34
33 5 10
33 6 66
33 7 67
33 8 11
33 9 80
33 10 38
33 11 71
33 12 32
33 13 61
33 14 72
33 15 47
33 16 37
33 17 36
33 18 62
33 19 43
33 20 11
33 21 68
33 22 46
33 23 51
33 24 3
33 25 60
33 26 3
33 27 62
33 28 6
33 29 66
33 30 74
33 31 33
33 32 71
34 0 26
34 1 33
34 2 23
34 3 51
34 4 9
34 5 10
34 6 77
34 7 22
34 8 61
34 9 44
34 10 77
34 11 22
34 12 59
34 13 46
34 14 63
34 15 34
34 16 63
34 17 14
34 18 74
34 19 26
34 20 23
34 21 49
34 22 58
34 23 29
34 24 69
34 25 48
34 26 63
34 27 46
34 28 62
34 29 29
34 30 13
34 31 50
34 32 67
34 33 45
35 0 45
35 1 56
35 2 59
35 3 25
35 4 27
35 5 13
35 6 16
35 7 4
35 8 70
35 9 20
35 10 17
35 11 69
35 12 77
35 13 7
35 14 31
35 15 33
35 16 61
35 17 62
35 18 4
35 19 60
35 20 75
35 21 48
35 22 57
35 23 39
35 24 63
35 25 22
35 26 3
35 27 31
35 28 36
35 29 66
35 30 27
35 31 79
35 32 61
35 33 65
35 34 29
36 0 2
36 1 80
36 2 57
36 3 68
36 4 70
36 5 64
36 6 50
36 7 77
36 8 76
36 9 77
36 10 73
36 11 72
36 12 10
36 13 75
36 14 16
36 15 4
36 16 32
36 17 6
36 18 66
36 19 38
36 20 31
36 21 7
36 22 72
36 23 56
36 24 42
36 25 25
36 26 29
36 27 13
36 28 74
36 29 46
36 30 52
36 31 45
36 32 11
36 33 68
36 34 9
36 35 8
37 0 52
37 1 2
37 2 6
37 3 40
37 4 38
37 5 32
37 6 15
37 7 74
37 8 30
37 9 65
37 10 54
37 11 46
37 12 51
37 13 38
37 14 27
37 15 28
37 16 7
37 17 67
37 18 47
37 19 67
37 20 20
37 21 17
37 22 69
37 23 62
37 24 40
37 25 72
37 26 18
37 27 34
37 28 54
37 29 4
37 30 65
37 31 48
37 32 48
37 33 33
37 34 50
37 35 42
37 36 32
38 0 74
38 1 70
38 2 34
38 3 45
38 4 53
38 5 50
38 6 54
38 7 8
38 8 36
38 9 52
38 10 80
38 11 38
38 12 36
38 13 57
38 14 70
38 15 63
38 16 32
38 17 49
38 18 18
38 19 50
38 20 20
38 21 63
38 22 4
38 23 51
38 24 30
38 25 26
38 26 51
38 27 40
38 28 62
38 29 41
38 30 25
38 31 79
38 32 61
38 33 41
38 34 7
38 35 26
38 36 7
38 37 51
39 0 46
39 1 75
39 2 52
39 3 26
39 4 77
39 5 32
39 6 80
39 7 69
39 8 3
39 9 8
39 10 29
39 11 32
39 12 38
39 13 72
39 14 12
39 15 61
39 16 74
39 17 79
39 18 59
39 19 17
39 20 44
39 21 40
39 22 24
39 23 10
39 24 10
39 25 50
39 26 79
39 27 12
39 28 63
39 29 37
39 30 31
39 31 34
39 32 9
39 33 53
39 34 42
39 35 70
39 36 1
39 37 47
39 38 50
